clasp version 2.1.1
Reading from stdin
Solving...
UNSATISFIABLE

Models      : 0     
Time        : 0.069s (Solving: 0.02s 1st Model: 0.00s Unsat: 0.02s)
CPU Time    : 0.080s
Choices     : 2449
Conflicts   : 2166
Restarts    : 4      (Average: 541.00 Last: 998)

Atoms       : 6639  
Rules       : 22221  (1: 21848 2: 360 3: 13)
Bodies      : 12421 
Equivalences: 3916   (Atom=Atom: 427 Body=Body: 0 Other: 3489)
Tight       : Yes

Variables   : 16740  (Eliminated:    0 Frozen: 5040)
Constraints : 24930  (Binary: 42.2% Ternary: 56.3% Other:  1.4%)
Lemmas      : 2295   (Binary:  2.4% Ternary:  5.3% Other: 92.3%)
  Conflict  : 2163   (Average Length: 8.9) 
  Loop      : 0      (Average Length: 0.0) 
  Other     : 132    (Average Length: 2.6)
  Deleted   : 0     

============ PARALLEL STATISTICS ============

Threads     : 3
Winner      : 0
Distributed : 603    (Ratio: 0.28 Average LBD: 3.41) 
Integrated  : 1143   (Ratio: 1.90 Unit: 27 Average Jumps: 2.41)
Splits      : 0
Problems    : 3      (Average Length: 0.00) 

